************************************************************************
file with basedata            : c1511_.bas
initial value random generator: 869499717
************************************************************************
projects                      :  1
jobs (incl. supersource/sink ):  18
horizon                       :  127
RESOURCES
  - renewable                 :  2   R
  - nonrenewable              :  2   N
  - doubly constrained        :  0   D
************************************************************************
PROJECT INFORMATION:
pronr.  #jobs rel.date duedate tardcost  MPM-Time
    1     16      0       21       12       21
************************************************************************
PRECEDENCE RELATIONS:
jobnr.    #modes  #successors   successors
   1        1          3           2   3   4
   2        3          1           6
   3        3          1          14
   4        3          3           5   8  13
   5        3          1           9
   6        3          3           7  11  12
   7        3          3          10  13  17
   8        3          1          16
   9        3          1          12
  10        3          2          14  16
  11        3          1          17
  12        3          2          15  17
  13        3          1          15
  14        3          1          15
  15        3          1          18
  16        3          1          18
  17        3          1          18
  18        1          0        
************************************************************************
REQUESTS/DURATIONS:
jobnr. mode duration  R 1  R 2  N 1  N 2
------------------------------------------------------------------------
  1      1     0       0    0    0    0
  2      1     2       0    8    0   10
         2     6       0    6    0   10
         3     7       0    5    0   10
  3      1     3       0    5    0    9
         2     4       2    0    4    0
         3     6       0    4    0    3
  4      1     2       8    0    4    0
         2     6       0    2    0    4
         3     8       7    0    0    3
  5      1     1       0    7    4    0
         2     7       4    0    4    0
         3     7       0    3    4    0
  6      1     9       0    8    0    8
         2     9       0    6    4    0
         3    10       0    4    0    7
  7      1     1       6    0    0    4
         2     5       0    6    9    0
         3     7       0    5    4    0
  8      1     3       0    7    0    4
         2     8       0    6    0    4
         3     9       0    4    0    3
  9      1     5       0    5    0    2
         2     8       8    0    4    0
         3     8       0    5    6    0
 10      1     2       0    6    0    5
         2     9       7    0    0    3
         3     9       7    0    8    0
 11      1     4       6    0    2    0
         2     4       8    0    1    0
         3     7       5    0    0    5
 12      1     8       0    7    3    0
         2    10       0    3    3    0
         3    10       8    0    3    0
 13      1     5      10    0    0    6
         2     8       0    2    0    3
         3     9       7    0    6    0
 14      1     2       7    0    2    0
         2     7       0    8    1    0
         3     9       0    4    1    0
 15      1     2       4    0    7    0
         2     7       0    9    2    0
         3     8       0    9    0    6
 16      1     1       0    4    0    7
         2     2       7    0    0    6
         3     8       5    0    0    3
 17      1     1       3    0    6    0
         2     2       3    0    5    0
         3     5       0    9    0    2
 18      1     0       0    0    0    0
************************************************************************
RESOURCEAVAILABILITIES:
  R 1  R 2  N 1  N 2
   26   18   37   44
************************************************************************
